40 390 
1 2 1
1 8 1
1 9 1
1 10 1
1 11 1
1 12 1
1 14 1
1 15 1
1 16 1
1 17 1
1 20 1
1 22 1
1 23 1
1 27 1
1 29 1
1 30 1
1 31 1
1 32 1
1 33 1
1 34 1
1 35 1
1 37 1
1 40 1
2 4 1
2 5 1
2 7 1
2 13 1
2 15 1
2 16 1
2 17 1
2 18 1
2 20 1
2 22 1
2 24 1
2 26 1
2 31 1
2 33 1
2 34 1
2 38 1
2 39 1
3 4 1
3 6 1
3 10 1
3 13 1
3 16 1
3 17 1
3 18 1
3 27 1
3 29 1
3 32 1
3 34 1
3 37 1
4 7 1
4 8 1
4 9 1
4 10 1
4 11 1
4 13 1
4 16 1
4 17 1
4 18 1
4 19 1
4 21 1
4 22 1
4 23 1
4 26 1
4 29 1
4 30 1
4 33 1
4 34 1
4 36 1
4 39 1
4 40 1
5 16 1
5 17 1
5 18 1
5 20 1
5 21 1
5 22 1
5 23 1
5 27 1
5 28 1
5 29 1
5 36 1
5 38 1
6 8 1
6 10 1
6 13 1
6 18 1
6 21 1
6 23 1
6 24 1
6 26 1
6 27 1
6 32 1
6 34 1
6 35 1
6 36 1
6 37 1
6 38 1
7 9 1
7 15 1
7 16 1
7 19 1
7 21 1
7 23 1
7 24 1
7 25 1
7 28 1
7 29 1
7 31 1
7 32 1
7 33 1
7 35 1
7 39 1
7 40 1
8 10 1
8 13 1
8 14 1
8 16 1
8 19 1
8 22 1
8 23 1
8 24 1
8 30 1
8 31 1
8 32 1
8 33 1
8 34 1
8 40 1
9 13 1
9 14 1
9 15 1
9 16 1
9 17 1
9 20 1
9 23 1
9 24 1
9 27 1
9 29 1
9 30 1
9 32 1
9 33 1
9 34 1
9 35 1
9 36 1
9 38 1
9 40 1
10 11 1
10 12 1
10 13 1
10 16 1
10 17 1
10 18 1
10 20 1
10 21 1
10 22 1
10 25 1
10 28 1
10 29 1
10 30 1
10 34 1
10 36 1
10 39 1
11 13 1
11 15 1
11 21 1
11 22 1
11 23 1
11 29 1
11 31 1
11 32 1
11 33 1
11 35 1
11 36 1
11 37 1
11 39 1
12 13 1
12 14 1
12 16 1
12 17 1
12 19 1
12 21 1
12 23 1
12 24 1
12 25 1
12 27 1
12 30 1
12 31 1
12 36 1
12 40 1
13 15 1
13 16 1
13 18 1
13 22 1
13 24 1
13 26 1
13 28 1
13 31 1
13 32 1
13 34 1
13 36 1
13 37 1
14 16 1
14 17 1
14 18 1
14 19 1
14 21 1
14 28 1
14 29 1
14 30 1
14 32 1
14 35 1
14 36 1
14 37 1
14 39 1
15 17 1
15 18 1
15 23 1
15 26 1
15 27 1
15 29 1
15 30 1
15 33 1
15 37 1
15 39 1
16 21 1
16 24 1
16 25 1
16 26 1
16 27 1
16 28 1
16 29 1
16 31 1
16 33 1
16 34 1
16 35 1
16 36 1
16 37 1
16 38 1
16 40 1
17 18 1
17 19 1
17 21 1
17 23 1
17 24 1
17 25 1
17 28 1
17 30 1
17 32 1
17 34 1
17 35 1
17 36 1
18 21 1
18 23 1
18 24 1
18 26 1
18 33 1
18 35 1
18 38 1
18 39 1
19 20 1
19 21 1
19 24 1
19 26 1
19 29 1
19 31 1
19 33 1
19 34 1
19 35 1
19 36 1
19 37 1
19 39 1
20 21 1
20 22 1
20 24 1
20 26 1
20 27 1
20 28 1
20 29 1
20 30 1
20 31 1
20 35 1
20 36 1
20 37 1
20 38 1
20 39 1
21 22 1
21 25 1
21 27 1
21 28 1
21 29 1
21 30 1
21 32 1
21 33 1
21 37 1
21 39 1
21 40 1
22 24 1
22 27 1
22 29 1
22 30 1
22 32 1
22 33 1
22 34 1
22 40 1
23 24 1
23 25 1
23 26 1
23 27 1
23 28 1
23 29 1
23 32 1
23 38 1
23 39 1
23 40 1
24 29 1
24 30 1
24 33 1
24 34 1
24 35 1
24 36 1
24 38 1
24 39 1
24 40 1
25 27 1
25 28 1
25 29 1
25 30 1
25 32 1
25 33 1
25 34 1
25 35 1
25 37 1
25 39 1
26 33 1
26 34 1
26 35 1
26 40 1
27 28 1
27 31 1
27 33 1
27 34 1
27 36 1
27 38 1
27 39 1
28 32 1
28 34 1
28 36 1
28 38 1
28 39 1
28 40 1
29 30 1
29 34 1
29 35 1
29 36 1
29 37 1
29 38 1
29 40 1
30 32 1
30 33 1
30 34 1
30 38 1
30 40 1
31 33 1
31 34 1
31 35 1
31 38 1
31 39 1
32 33 1
32 34 1
32 36 1
32 39 1
32 40 1
33 36 1
33 37 1
33 38 1
34 35 1
35 36 1
35 37 1
35 39 1
35 40 1
36 37 1
36 38 1
36 39 1
36 40 1
37 38 1
37 40 1
38 39 1
38 40 1
